c A SAT instance generated from a 3-CNF formula that had 20 clauses and 5 variables
p cnf 5 20
3 1 5 0
-5 2 -3 0
-4 -3 2 0
-3 5 -4 0
4 3 -1 0
-2 -1 -5 0
-3 -5 -4 0
-3 5 2 0
2 -4 5 0
-1 -4 -2 0
-2 4 5 0
2 5 4 0
3 1 2 0
-3 -5 1 0
3 -4 2 0
-4 1 -5 0
-3 -1 -4 0
1 -2 3 0
2 -3 5 0
1 5 -3 0
